(set-info :smt-lib-version 2.6)
(set-logic QF_UFLIA)
(set-info :status unsat)
(declare-fun x () Int)
(declare-fun y () Int)
(declare-fun f (Int) Int)
(declare-fun P (Int) Bool)
(assert (and (<= x y) (<= y x) (P (- (f x) (f y))) (not (P 0))))
(check-sat)
(exit)
